p cnf 1124
-16 -352
-17 -355
-18 -358
-19 -361
-20 -364
-21 -367
-22 -370
-23 -373
-24 -376
-25 -379
-26 -382
-27 -385
-28 -388
-29 -391
-30 -394
-31 395
-32 396
-33 397
-34 398
-35 399
-36 400
-37 401
-38 402
-39 403
-40 404
-41 -17
-41 -18
17 18 41
-42 -19
-42 -20
19 20 42
-43 -21
-43 -22
21 22 43
-44 -23
-44 -24
23 24 44
-45 -25
-45 -26
25 26 45
-46 -27
-46 -28
27 28 46
-47 -29
-47 -30
29 30 47
-48 -31
-48 -32
31 32 48
-49 -33
-49 -34
33 34 49
-50 -35
-50 -36
35 36 50
-51 -37
-51 -38
37 38 51
-52 -39
-52 -40
39 40 52
-53 41
-53 42
-41 -42 53
-54 43
-54 44
-43 -44 54
-55 45
-55 46
-45 -46 55
-56 47
-56 48
-47 -48 56
-57 49
-57 50
-49 -50 57
-58 51
-58 52
-51 -52 58
-59 53
-59 54
-53 -54 59
-60 55
-60 56
-55 -56 60
-61 57
-61 58
-57 -58 61
-62 59
-62 60
-59 -60 62
-63 61
-63 62
-61 -62 63
-64 -16
-64 17
16 -17 64
-65 16
-65 -17
-16 17 65
-66 -64
-66 -65
64 65 66
-67 16
-67 17
-16 -17 67
-68 -16
-68 -66
16 66 68
-69 16
-69 66
-16 -66 69
-70 -68
-70 -69
68 69 70
-71 16
-71 -66
-16 66 71
-72 -67
-72 -71
67 71 72
-73 -17
-73 18
17 -18 73
-74 17
-74 -18
-17 18 74
-75 -73
-75 -74
73 74 75
-76 17
-76 18
-17 -18 76
-77 72
-77 -75
-72 75 77
-78 -72
-78 75
72 -75 78
-79 -77
-79 -78
77 78 79
-80 -72
-80 -75
72 75 80
-81 -76
-81 -80
76 80 81
-82 -18
-82 19
18 -19 82
-83 18
-83 -19
-18 19 83
-84 -82
-84 -83
82 83 84
-85 18
-85 19
-18 -19 85
-86 81
-86 -84
-81 84 86
-87 -81
-87 84
81 -84 87
-88 -86
-88 -87
86 87 88
-89 -81
-89 -84
81 84 89
-90 -85
-90 -89
85 89 90
-91 -19
-91 20
19 -20 91
-92 19
-92 -20
-19 20 92
-93 -91
-93 -92
91 92 93
-94 19
-94 20
-19 -20 94
-95 90
-95 -93
-90 93 95
-96 -90
-96 93
90 -93 96
-97 -95
-97 -96
95 96 97
-98 -90
-98 -93
90 93 98
-99 -94
-99 -98
94 98 99
-100 -20
-100 21
20 -21 100
-101 20
-101 -21
-20 21 101
-102 -100
-102 -101
100 101 102
-103 20
-103 21
-20 -21 103
-104 99
-104 -102
-99 102 104
-105 -99
-105 102
99 -102 105
-106 -104
-106 -105
104 105 106
-107 -99
-107 -102
99 102 107
-108 -103
-108 -107
103 107 108
-109 -21
-109 22
21 -22 109
-110 21
-110 -22
-21 22 110
-111 -109
-111 -110
109 110 111
-112 21
-112 22
-21 -22 112
-113 108
-113 -111
-108 111 113
-114 -108
-114 111
108 -111 114
-115 -113
-115 -114
113 114 115
-116 -108
-116 -111
108 111 116
-117 -112
-117 -116
112 116 117
-118 -22
-118 23
22 -23 118
-119 22
-119 -23
-22 23 119
-120 -118
-120 -119
118 119 120
-121 22
-121 23
-22 -23 121
-122 117
-122 -120
-117 120 122
-123 -117
-123 120
117 -120 123
-124 -122
-124 -123
122 123 124
-125 -117
-125 -120
117 120 125
-126 -121
-126 -125
121 125 126
-127 -23
-127 24
23 -24 127
-128 23
-128 -24
-23 24 128
-129 -127
-129 -128
127 128 129
-130 23
-130 24
-23 -24 130
-131 126
-131 -129
-126 129 131
-132 -126
-132 129
126 -129 132
-133 -131
-133 -132
131 132 133
-134 -126
-134 -129
126 129 134
-135 -130
-135 -134
130 134 135
-136 -24
-136 25
24 -25 136
-137 24
-137 -25
-24 25 137
-138 -136
-138 -137
136 137 138
-139 24
-139 25
-24 -25 139
-140 135
-140 -138
-135 138 140
-141 -135
-141 138
135 -138 141
-142 -140
-142 -141
140 141 142
-143 -135
-143 -138
135 138 143
-144 -139
-144 -143
139 143 144
-145 -25
-145 26
25 -26 145
-146 25
-146 -26
-25 26 146
-147 -145
-147 -146
145 146 147
-148 25
-148 26
-25 -26 148
-149 144
-149 -147
-144 147 149
-150 -144
-150 147
144 -147 150
-151 -149
-151 -150
149 150 151
-152 -144
-152 -147
144 147 152
-153 -148
-153 -152
148 152 153
-154 -26
-154 27
26 -27 154
-155 26
-155 -27
-26 27 155
-156 -154
-156 -155
154 155 156
-157 26
-157 27
-26 -27 157
-158 153
-158 -156
-153 156 158
-159 -153
-159 156
153 -156 159
-160 -158
-160 -159
158 159 160
-161 -153
-161 -156
153 156 161
-162 -157
-162 -161
157 161 162
-163 -27
-163 28
27 -28 163
-164 27
-164 -28
-27 28 164
-165 -163
-165 -164
163 164 165
-166 27
-166 28
-27 -28 166
-167 162
-167 -165
-162 165 167
-168 -162
-168 165
162 -165 168
-169 -167
-169 -168
167 168 169
-170 -162
-170 -165
162 165 170
-171 -166
-171 -170
166 170 171
-172 -28
-172 29
28 -29 172
-173 28
-173 -29
-28 29 173
-174 -172
-174 -173
172 173 174
-175 28
-175 29
-28 -29 175
-176 171
-176 -174
-171 174 176
-177 -171
-177 174
171 -174 177
-178 -176
-178 -177
176 177 178
-179 -171
-179 -174
171 174 179
-180 -175
-180 -179
175 179 180
-181 -29
-181 30
29 -30 181
-182 29
-182 -30
-29 30 182
-183 -181
-183 -182
181 182 183
-184 29
-184 30
-29 -30 184
-185 180
-185 -183
-180 183 185
-186 -180
-186 183
180 -183 186
-187 -185
-187 -186
185 186 187
-188 -180
-188 -183
180 183 188
-189 -184
-189 -188
184 188 189
-190 -30
-190 31
30 -31 190
-191 30
-191 -31
-30 31 191
-192 -190
-192 -191
190 191 192
-193 30
-193 31
-30 -31 193
-194 189
-194 -192
-189 192 194
-195 -189
-195 192
189 -192 195
-196 -194
-196 -195
194 195 196
-197 -189
-197 -192
189 192 197
-198 -193
-198 -197
193 197 198
-199 -31
-199 32
31 -32 199
-200 31
-200 -32
-31 32 200
-201 -199
-201 -200
199 200 201
-202 31
-202 32
-31 -32 202
-203 198
-203 -201
-198 201 203
-204 -198
-204 201
198 -201 204
-205 -203
-205 -204
203 204 205
-206 -198
-206 -201
198 201 206
-207 -202
-207 -206
202 206 207
-208 -32
-208 33
32 -33 208
-209 32
-209 -33
-32 33 209
-210 -208
-210 -209
208 209 210
-211 32
-211 33
-32 -33 211
-212 207
-212 -210
-207 210 212
-213 -207
-213 210
207 -210 213
-214 -212
-214 -213
212 213 214
-215 -207
-215 -210
207 210 215
-216 -211
-216 -215
211 215 216
-217 -33
-217 34
33 -34 217
-218 33
-218 -34
-33 34 218
-219 -217
-219 -218
217 218 219
-220 33
-220 34
-33 -34 220
-221 216
-221 -219
-216 219 221
-222 -216
-222 219
216 -219 222
-223 -221
-223 -222
221 222 223
-224 -216
-224 -219
216 219 224
-225 -220
-225 -224
220 224 225
-226 -34
-226 35
34 -35 226
-227 34
-227 -35
-34 35 227
-228 -226
-228 -227
226 227 228
-229 34
-229 35
-34 -35 229
-230 225
-230 -228
-225 228 230
-231 -225
-231 228
225 -228 231
-232 -230
-232 -231
230 231 232
-233 -225
-233 -228
225 228 233
-234 -229
-234 -233
229 233 234
-235 -35
-235 36
35 -36 235
-236 35
-236 -36
-35 36 236
-237 -235
-237 -236
235 236 237
-238 35
-238 36
-35 -36 238
-239 234
-239 -237
-234 237 239
-240 -234
-240 237
234 -237 240
-241 -239
-241 -240
239 240 241
-242 -234
-242 -237
234 237 242
-243 -238
-243 -242
238 242 243
-244 -36
-244 37
36 -37 244
-245 36
-245 -37
-36 37 245
-246 -244
-246 -245
244 245 246
-247 36
-247 37
-36 -37 247
-248 243
-248 -246
-243 246 248
-249 -243
-249 246
243 -246 249
-250 -248
-250 -249
248 249 250
-251 -243
-251 -246
243 246 251
-252 -247
-252 -251
247 251 252
-253 -37
-253 38
37 -38 253
-254 37
-254 -38
-37 38 254
-255 -253
-255 -254
253 254 255
-256 37
-256 38
-37 -38 256
-257 252
-257 -255
-252 255 257
-258 -252
-258 255
252 -255 258
-259 -257
-259 -258
257 258 259
-260 -252
-260 -255
252 255 260
-261 -256
-261 -260
256 260 261
-262 -38
-262 39
38 -39 262
-263 38
-263 -39
-38 39 263
-264 -262
-264 -263
262 263 264
-265 38
-265 39
-38 -39 265
-266 261
-266 -264
-261 264 266
-267 -261
-267 264
261 -264 267
-268 -266
-268 -267
266 267 268
-269 -261
-269 -264
261 264 269
-270 -265
-270 -269
265 269 270
-271 -39
-271 40
39 -40 271
-272 39
-272 -40
-39 40 272
-273 -271
-273 -272
271 272 273
-274 39
-274 40
-39 -40 274
-275 270
-275 -273
-270 273 275
-276 -270
-276 273
270 -273 276
-277 -275
-277 -276
275 276 277
-278 -270
-278 -273
270 273 278
-279 -274
-279 -278
274 278 279
-280 16
-280 -70
-16 70 280
-281 -16
-281 18
16 -18 281
-282 -280
-282 -281
280 281 282
-283 16
-283 -79
-16 79 283
-284 -16
-284 19
16 -19 284
-285 -283
-285 -284
283 284 285
-286 16
-286 -88
-16 88 286
-287 -16
-287 20
16 -20 287
-288 -286
-288 -287
286 287 288
-289 16
-289 -97
-16 97 289
-290 -16
-290 21
16 -21 290
-291 -289
-291 -290
289 290 291
-292 16
-292 -106
-16 106 292
-293 -16
-293 22
16 -22 293
-294 -292
-294 -293
292 293 294
-295 16
-295 -115
-16 115 295
-296 -16
-296 23
16 -23 296
-297 -295
-297 -296
295 296 297
-298 16
-298 -124
-16 124 298
-299 -16
-299 24
16 -24 299
-300 -298
-300 -299
298 299 300
-301 16
-301 -133
-16 133 301
-302 -16
-302 25
16 -25 302
-303 -301
-303 -302
301 302 303
-304 16
-304 -142
-16 142 304
-305 -16
-305 26
16 -26 305
-306 -304
-306 -305
304 305 306
-307 16
-307 -151
-16 151 307
-308 -16
-308 27
16 -27 308
-309 -307
-309 -308
307 308 309
-310 16
-310 -160
-16 160 310
-311 -16
-311 28
16 -28 311
-312 -310
-312 -311
310 311 312
-313 16
-313 -169
-16 169 313
-314 -16
-314 29
16 -29 314
-315 -313
-315 -314
313 314 315
-316 16
-316 -178
-16 178 316
-317 -16
-317 30
16 -30 317
-318 -316
-318 -317
316 317 318
-319 16
-319 -187
-16 187 319
-320 -16
-320 31
16 -31 320
-321 -319
-321 -320
319 320 321
-322 16
-322 -196
-16 196 322
-323 -16
-323 32
16 -32 323
-324 -322
-324 -323
322 323 324
-325 16
-325 -205
-16 205 325
-326 -16
-326 33
16 -33 326
-327 -325
-327 -326
325 326 327
-328 16
-328 -214
-16 214 328
-329 -16
-329 34
16 -34 329
-330 -328
-330 -329
328 329 330
-331 16
-331 -223
-16 223 331
-332 -16
-332 35
16 -35 332
-333 -331
-333 -332
331 332 333
-334 16
-334 -232
-16 232 334
-335 -16
-335 36
16 -36 335
-336 -334
-336 -335
334 335 336
-337 16
-337 -241
-16 241 337
-338 -16
-338 37
16 -37 338
-339 -337
-339 -338
337 338 339
-340 16
-340 -250
-16 250 340
-341 -16
-341 38
16 -38 341
-342 -340
-342 -341
340 341 342
-343 16
-343 -259
-16 259 343
-344 -16
-344 39
16 -39 344
-345 -343
-345 -344
343 344 345
-346 16
-346 -268
-16 268 346
-347 -16
-347 40
16 -40 347
-348 -346
-348 -347
346 347 348
-349 16
-349 -277
-16 277 349
-350 1
-350 63
-1 -63 350
-351 -63
-351 64
63 -64 351
-352 -350
-352 -351
350 351 352
-353 2
-353 63
-2 -63 353
-354 -63
-354 -282
63 282 354
-355 -353
-355 -354
353 354 355
-356 3
-356 63
-3 -63 356
-357 -63
-357 -285
63 285 357
-358 -356
-358 -357
356 357 358
-359 4
-359 63
-4 -63 359
-360 -63
-360 -288
63 288 360
-361 -359
-361 -360
359 360 361
-362 5
-362 63
-5 -63 362
-363 -63
-363 -291
63 291 363
-364 -362
-364 -363
362 363 364
-365 6
-365 63
-6 -63 365
-366 -63
-366 -294
63 294 366
-367 -365
-367 -366
365 366 367
-368 7
-368 63
-7 -63 368
-369 -63
-369 -297
63 297 369
-370 -368
-370 -369
368 369 370
-371 8
-371 63
-8 -63 371
-372 -63
-372 -300
63 300 372
-373 -371
-373 -372
371 372 373
-374 9
-374 63
-9 -63 374
-375 -63
-375 -303
63 303 375
-376 -374
-376 -375
374 375 376
-377 10
-377 63
-10 -63 377
-378 -63
-378 -306
63 306 378
-379 -377
-379 -378
377 378 379
-380 11
-380 63
-11 -63 380
-381 -63
-381 -309
63 309 381
-382 -380
-382 -381
380 381 382
-383 12
-383 63
-12 -63 383
-384 -63
-384 -312
63 312 384
-385 -383
-385 -384
383 384 385
-386 13
-386 63
-13 -63 386
-387 -63
-387 -315
63 315 387
-388 -386
-388 -387
386 387 388
-389 14
-389 63
-14 -63 389
-390 -63
-390 -318
63 318 390
-391 -389
-391 -390
389 390 391
-392 15
-392 63
-15 -63 392
-393 -63
-393 -321
63 321 393
-394 -392
-394 -393
392 393 394
-395 -63
-395 -324
63 324 395
-396 -63
-396 -327
63 327 396
-397 -63
-397 -330
63 330 397
-398 -63
-398 -333
63 333 398
-399 -63
-399 -336
63 336 399
-400 -63
-400 -339
63 339 400
-401 -63
-401 -342
63 342 401
-402 -63
-402 -345
63 345 402
-403 -63
-403 -348
63 348 403
-404 -63
-404 349
63 -349 404
-405 -40
-405 279
40 -279 405
-406 16
-406 -405
-16 405 406
406
